\ Model Modelo AGC
\ LP format - for model browsing. Use MPS format to capture full model detail.
Minimize
  6500 Pg_inc[1,0,0] + 10000 Pg_inc[2,0,0] + 4000 Pg_inc[3,0,0]
   + 30000 P_ens[0,0,0] + 30000 P_ens[1,0,0] + 30000 P_ens[2,0,0]
   + 0 n_a[0,0,0,10] + 0 n_a[1,0,0,10] + 0 n_a[2,0,0,10]
Subject To
 Balance: Pg_inc[0,0,0] + Pg_inc[1,0,0] + Pg_inc[2,0,0] + Pg_inc[3,0,0]
   + P_ens[0,0,0] + P_ens[1,0,0] + P_ens[2,0,0] - losses[0,0,0]
   - losses[1,0,0] - losses[2,0,0] = 1.0697076928396
 PMax__s=0_c=0[0]: - Pg_inc[0,0,0] + 1.1 vg_inc[0] >= 0
 PMax__s=0_c=0[1]: - Pg_inc[1,0,0] + 0.9 vg_inc[1] >= 0
 PMax__s=0_c=0[2]: - Pg_inc[2,0,0] + 0.44 vg_inc[2] >= 0
 PMax__s=0_c=0[3]: - Pg_inc[3,0,0] + 0.16 vg_inc[3] >= 0
 GenOut+__s=0_c=0: Pg_inc[0,0,0] = 0
 E1-G5_Ramp+__s=0_c=0[0]: - Pg_inc[1,0,0] >= -1500.123744213035
 E1-G5_Ramp+__s=0_c=0[1]: - Pg_inc[2,0,0] >= -1500.123748085893
 E1-G5_Ramp+__s=0_c=0[2]: - Pg_inc[3,0,0] >= -1500.123746400213
 R9: - P_ens[0,0,0] >= 0
 R10: - P_ens[1,0,0] >= -2.08905040855268
 R11: - P_ens[2,0,0] >= -1.099696538614604
 TS_Ploss[0]: losses[0,0,0] - 0.00178363687519027 dpk[0,0,0,0]
   - 0.00535091062557081 dpk[0,1,0,0] - 0.00891818437595135 dpk[0,2,0,0]
   - 0.0124854581263319 dpk[0,3,0,0] - 0.0160527318767124 dpk[0,4,0,0]
   - 0.019620005627093 dpk[0,5,0,0] - 0.0231872793774735 dpk[0,6,0,0]
   - 0.0267545531278541 dpk[0,7,0,0] - 0.0303218268782346 dpk[0,8,0,0]
   - 0.0338891006286151 dpk[0,9,0,0] - 0.0374563743789957 dpk[0,10,0,0]
   = 0
 TS_Ploss[1]: losses[1,0,0] - 0.00378181928732754 dpk[1,0,0,0]
   - 0.0113454578619826 dpk[1,1,0,0] - 0.0189090964366377 dpk[1,2,0,0]
   - 0.0264727350112928 dpk[1,3,0,0] - 0.0340363735859479 dpk[1,4,0,0]
   - 0.0416000121606029 dpk[1,5,0,0] - 0.049163650735258 dpk[1,6,0,0]
   - 0.0567272893099131 dpk[1,7,0,0] - 0.0642909278845682 dpk[1,8,0,0]
   - 0.0718545664592233 dpk[1,9,0,0] - 0.0794182050338783 dpk[1,10,0,0]
   = 0
 TS_Ploss[2]: losses[2,0,0] - 0.00210909152562497 dpk[2,0,0,0]
   - 0.00632727457687492 dpk[2,1,0,0] - 0.0105454576281249 dpk[2,2,0,0]
   - 0.0147636406793748 dpk[2,3,0,0] - 0.0189818237306248 dpk[2,4,0,0]
   - 0.0232000067818747 dpk[2,5,0,0] - 0.0274181898331247 dpk[2,6,0,0]
   - 0.0316363728843746 dpk[2,7,0,0] - 0.0358545559356246 dpk[2,8,0,0]
   - 0.0400727389868745 dpk[2,9,0,0] - 0.0442909220381245 dpk[2,10,0,0]
   = 0
 fs1_p[0]: 0.0978077595328931 Pg_inc[1,0,0]
   + 0.4485666213060268 Pg_inc[3,0,0] + 0.4485666213060268 P_ens[0,0,0]
   + 0.0978077595328931 P_ens[2,0,0] - 0.2242833106530134 losses[0,0,0]
   - 0.2731871904194599 losses[1,0,0] - 0.0489038797664465 losses[2,0,0]
   - 0.2000000493200983 s_ts[0,0,0] - 0.5514333786939732 f_ts[0,0,0]
   + 0.3507588617731337 f_ts[1,0,0] + 0.0978077595328931 f_ts[2,0,0]
   <= -0.1893045589854263
 fs1_p[1]: - 0.0978077595328931 Pg_inc[1,0,0]
   + 0.551433378693973 Pg_inc[3,0,0] + 0.551433378693973 P_ens[0,0,0]
   - 0.0978077595328931 P_ens[2,0,0] - 0.2757166893469865 losses[0,0,0]
   - 0.22681280958054 losses[1,0,0] + 0.0489038797664465 losses[2,0,0]
   - 1.000000260795754 s_ts[1,0,0] + 0.551433378693973 f_ts[0,0,0]
   - 0.3507588617731339 f_ts[1,0,0] - 0.0978077595328931 f_ts[2,0,0]
   <= -0.4506954410201996
 fs1_p[2]: 0.902192240467107 Pg_inc[1,0,0]
   + 0.5514333786939732 Pg_inc[3,0,0] + 0.5514333786939732 P_ens[0,0,0]
   + 0.902192240467107 P_ens[2,0,0] - 0.2757166893469866 losses[0,0,0]
   - 0.7268128095805402 losses[1,0,0] - 0.4510961202335535 losses[2,0,0]
   - 1.000000260795754 s_ts[2,0,0] + 0.5514333786939732 f_ts[0,0,0]
   - 0.3507588617731338 f_ts[1,0,0] - 0.097807759532893 f_ts[2,0,0]
   <= 0.5490010975767345
 fs1_n[0]: 0.0978077595328931 Pg_inc[1,0,0]
   + 0.4485666213060268 Pg_inc[3,0,0] + 0.4485666213060268 P_ens[0,0,0]
   + 0.0978077595328931 P_ens[2,0,0] - 0.2242833106530134 losses[0,0,0]
   - 0.2731871904194599 losses[1,0,0] - 0.0489038797664465 losses[2,0,0]
   + 0.2000000493200983 s_ts[0,0,0] - 0.5514333786939732 f_ts[0,0,0]
   + 0.3507588617731337 f_ts[1,0,0] + 0.0978077595328931 f_ts[2,0,0]
   >= -0.1893045589854263
 fs1_n[1]: - 0.0978077595328931 Pg_inc[1,0,0]
   + 0.551433378693973 Pg_inc[3,0,0] + 0.551433378693973 P_ens[0,0,0]
   - 0.0978077595328931 P_ens[2,0,0] - 0.2757166893469865 losses[0,0,0]
   - 0.22681280958054 losses[1,0,0] + 0.0489038797664465 losses[2,0,0]
   + 1.000000260795754 s_ts[1,0,0] + 0.551433378693973 f_ts[0,0,0]
   - 0.3507588617731339 f_ts[1,0,0] - 0.0978077595328931 f_ts[2,0,0]
   >= -0.4506954410201996
 fs1_n[2]: 0.902192240467107 Pg_inc[1,0,0]
   + 0.5514333786939732 Pg_inc[3,0,0] + 0.5514333786939732 P_ens[0,0,0]
   + 0.902192240467107 P_ens[2,0,0] - 0.2757166893469866 losses[0,0,0]
   - 0.7268128095805402 losses[1,0,0] - 0.4510961202335535 losses[2,0,0]
   + 1.000000260795754 s_ts[2,0,0] + 0.5514333786939732 f_ts[0,0,0]
   - 0.3507588617731338 f_ts[1,0,0] - 0.097807759532893 f_ts[2,0,0]
   >= 0.5490010975767345
 fs2_p[0]: 1e+06 s_ts[0,0,0] + f_ts[0,0,0] <= 1e+06
 fs2_p[1]: 1e+06 s_ts[1,0,0] + f_ts[1,0,0] <= 1e+06
 fs2_p[2]: 1e+06 s_ts[2,0,0] + f_ts[2,0,0] <= 1e+06
 fs2_n[0]: - 1e+06 s_ts[0,0,0] + f_ts[0,0,0] >= -1e+06
 fs2_n[1]: - 1e+06 s_ts[1,0,0] + f_ts[1,0,0] >= -1e+06
 fs2_n[2]: - 1e+06 s_ts[2,0,0] + f_ts[2,0,0] >= -1e+06
 R27: - fp[0,0,0] - fn[0,0,0] + dpk[0,0,0,0] + dpk[0,1,0,0] + dpk[0,2,0,0]
   + dpk[0,3,0,0] + dpk[0,4,0,0] + dpk[0,5,0,0] + dpk[0,6,0,0]
   + dpk[0,7,0,0] + dpk[0,8,0,0] + dpk[0,9,0,0] + dpk[0,10,0,0] = 0
 R28: - fp[1,0,0] - fn[1,0,0] + dpk[1,0,0,0] + dpk[1,1,0,0] + dpk[1,2,0,0]
   + dpk[1,3,0,0] + dpk[1,4,0,0] + dpk[1,5,0,0] + dpk[1,6,0,0]
   + dpk[1,7,0,0] + dpk[1,8,0,0] + dpk[1,9,0,0] + dpk[1,10,0,0] = 0
 R29: - fp[2,0,0] - fn[2,0,0] + dpk[2,0,0,0] + dpk[2,1,0,0] + dpk[2,2,0,0]
   + dpk[2,3,0,0] + dpk[2,4,0,0] + dpk[2,5,0,0] + dpk[2,6,0,0]
   + dpk[2,7,0,0] + dpk[2,8,0,0] + dpk[2,9,0,0] + dpk[2,10,0,0] = 0
 flujo[0]: flujo[0,0,0] - fp[0,0,0] + fn[0,0,0] = 0
 flujo[1]: flujo[1,0,0] - fp[1,0,0] + fn[1,0,0] = 0
 flujo[2]: flujo[2,0,0] - fp[2,0,0] + fn[2,0,0] = 0
 R33: - 0.0978077595328931 Pg_inc[1,0,0] - 0.4485666213060268 Pg_inc[3,0,0]
   - 0.4485666213060268 P_ens[0,0,0] - 0.0978077595328931 P_ens[2,0,0]
   + flujo[0,0,0] + 0.2242833106530134 losses[0,0,0]
   + 0.2731871904194599 losses[1,0,0] + 0.0489038797664465 losses[2,0,0]
   + 0.5514333786939732 f_ts[0,0,0] - 0.3507588617731337 f_ts[1,0,0]
   - 0.0978077595328931 f_ts[2,0,0] = 0.1893045589854263
 R34: 0.0978077595328931 Pg_inc[1,0,0] - 0.551433378693973 Pg_inc[3,0,0]
   - 0.551433378693973 P_ens[0,0,0] + 0.0978077595328931 P_ens[2,0,0]
   + flujo[1,0,0] + 0.2757166893469865 losses[0,0,0]
   + 0.22681280958054 losses[1,0,0] - 0.0489038797664465 losses[2,0,0]
   - 0.551433378693973 f_ts[0,0,0] + 0.3507588617731339 f_ts[1,0,0]
   + 0.0978077595328931 f_ts[2,0,0] = 0.4506954410201996
 R35: - 0.902192240467107 Pg_inc[1,0,0] - 0.5514333786939732 Pg_inc[3,0,0]
   - 0.5514333786939732 P_ens[0,0,0] - 0.902192240467107 P_ens[2,0,0]
   + flujo[2,0,0] + 0.2757166893469866 losses[0,0,0]
   + 0.7268128095805402 losses[1,0,0] + 0.4510961202335535 losses[2,0,0]
   - 0.5514333786939732 f_ts[0,0,0] + 0.3507588617731338 f_ts[1,0,0]
   + 0.097807759532893 f_ts[2,0,0] = -0.5490010975767345
 suma_f[0]: - fp[0,0,0] - fn[0,0,0] - 0.5 losses[0,0,0]
   >= -0.2000000493200983
 suma_f[1]: - fp[1,0,0] - fn[1,0,0] - 0.5 losses[1,0,0]
   >= -1.000000260795754
 suma_f[2]: - fp[2,0,0] - fn[2,0,0] - 0.5 losses[2,0,0]
   >= -1.000000260795754
 fp_n__s=0_c=0[0]: - fp[0,0,0] + 0.2000000493200983 n_l[0,0,0] >= 0
 fp_n__s=0_c=0[1]: - fp[1,0,0] + 1.000000260795754 n_l[1,0,0] >= 0
 fp_n__s=0_c=0[2]: - fp[2,0,0] + 1.000000260795754 n_l[2,0,0] >= 0
 fn_n__s=0_c=0[0]: - fn[0,0,0] - 0.2000000493200983 n_l[0,0,0]
   >= -0.2000000493200983
 fn_n__s=0_c=0[1]: - fn[1,0,0] - 1.000000260795754 n_l[1,0,0]
   >= -1.000000260795754
 fn_n__s=0_c=0[2]: - fn[2,0,0] - 1.000000260795754 n_l[2,0,0]
   >= -1.000000260795754
 d_f_Res_max_A_l[0]: - dpk[0,0,0,0] >= -0.0181818226654635
 d_f_Res_max_A_l[1]: - dpk[1,0,0,0] >= -0.0909091146177958
 d_f_Res_max_A_l[2]: - dpk[2,0,0,0] >= -0.0909091146177958
 d_f_Res_min_A_l[0]: dpk[0,0,0,0] - 0.0181818226654635 n_a[0,0,0,0] >= 0
 d_f_Res_min_A_l[1]: dpk[1,0,0,0] - 0.0909091146177958 n_a[1,0,0,0] >= 0
 d_f_Res_min_A_l[2]: dpk[2,0,0,0] - 0.0909091146177958 n_a[2,0,0,0] >= 0
 d_f_Res_max_A_L-1[0]: - dpk[0,1,0,0] + 0.0181818226654635 n_a[0,0,0,0]
   >= 0
 d_f_Res_max_A_L-1[1]: - dpk[1,1,0,0] + 0.0909091146177958 n_a[1,0,0,0]
   >= 0
 d_f_Res_max_A_L-1[2]: - dpk[2,1,0,0] + 0.0909091146177958 n_a[2,0,0,0]
   >= 0
 d_f_Res_min_A_L-1[0]: dpk[0,1,0,0] - 0.0181818226654635 n_a[0,0,0,1] >= 0
 d_f_Res_min_A_L-1[1]: dpk[1,1,0,0] - 0.0909091146177958 n_a[1,0,0,1] >= 0
 d_f_Res_min_A_L-1[2]: dpk[2,1,0,0] - 0.0909091146177958 n_a[2,0,0,1] >= 0
 d_f_Res_max_A_L-1[0]: - dpk[0,2,0,0] + 0.0181818226654635 n_a[0,0,0,1]
   >= 0
 d_f_Res_max_A_L-1[1]: - dpk[1,2,0,0] + 0.0909091146177958 n_a[1,0,0,1]
   >= 0
 d_f_Res_max_A_L-1[2]: - dpk[2,2,0,0] + 0.0909091146177958 n_a[2,0,0,1]
   >= 0
 d_f_Res_min_A_L-1[0]: dpk[0,2,0,0] - 0.0181818226654635 n_a[0,0,0,2] >= 0
 d_f_Res_min_A_L-1[1]: dpk[1,2,0,0] - 0.0909091146177958 n_a[1,0,0,2] >= 0
 d_f_Res_min_A_L-1[2]: dpk[2,2,0,0] - 0.0909091146177958 n_a[2,0,0,2] >= 0
 d_f_Res_max_A_L-1[0]: - dpk[0,3,0,0] + 0.0181818226654635 n_a[0,0,0,2]
   >= 0
 d_f_Res_max_A_L-1[1]: - dpk[1,3,0,0] + 0.0909091146177958 n_a[1,0,0,2]
   >= 0
 d_f_Res_max_A_L-1[2]: - dpk[2,3,0,0] + 0.0909091146177958 n_a[2,0,0,2]
   >= 0
 d_f_Res_min_A_L-1[0]: dpk[0,3,0,0] - 0.0181818226654635 n_a[0,0,0,3] >= 0
 d_f_Res_min_A_L-1[1]: dpk[1,3,0,0] - 0.0909091146177958 n_a[1,0,0,3] >= 0
 d_f_Res_min_A_L-1[2]: dpk[2,3,0,0] - 0.0909091146177958 n_a[2,0,0,3] >= 0
 d_f_Res_max_A_L-1[0]: - dpk[0,4,0,0] + 0.0181818226654635 n_a[0,0,0,3]
   >= 0
 d_f_Res_max_A_L-1[1]: - dpk[1,4,0,0] + 0.0909091146177958 n_a[1,0,0,3]
   >= 0
 d_f_Res_max_A_L-1[2]: - dpk[2,4,0,0] + 0.0909091146177958 n_a[2,0,0,3]
   >= 0
 d_f_Res_min_A_L-1[0]: dpk[0,4,0,0] - 0.0181818226654635 n_a[0,0,0,4] >= 0
 d_f_Res_min_A_L-1[1]: dpk[1,4,0,0] - 0.0909091146177958 n_a[1,0,0,4] >= 0
 d_f_Res_min_A_L-1[2]: dpk[2,4,0,0] - 0.0909091146177958 n_a[2,0,0,4] >= 0
 d_f_Res_max_A_L-1[0]: - dpk[0,5,0,0] + 0.0181818226654635 n_a[0,0,0,4]
   >= 0
 d_f_Res_max_A_L-1[1]: - dpk[1,5,0,0] + 0.0909091146177958 n_a[1,0,0,4]
   >= 0
 d_f_Res_max_A_L-1[2]: - dpk[2,5,0,0] + 0.0909091146177958 n_a[2,0,0,4]
   >= 0
 d_f_Res_min_A_L-1[0]: dpk[0,5,0,0] - 0.0181818226654635 n_a[0,0,0,5] >= 0
 d_f_Res_min_A_L-1[1]: dpk[1,5,0,0] - 0.0909091146177958 n_a[1,0,0,5] >= 0
 d_f_Res_min_A_L-1[2]: dpk[2,5,0,0] - 0.0909091146177958 n_a[2,0,0,5] >= 0
 d_f_Res_max_A_L-1[0]: - dpk[0,6,0,0] + 0.0181818226654635 n_a[0,0,0,5]
   >= 0
 d_f_Res_max_A_L-1[1]: - dpk[1,6,0,0] + 0.0909091146177958 n_a[1,0,0,5]
   >= 0
 d_f_Res_max_A_L-1[2]: - dpk[2,6,0,0] + 0.0909091146177958 n_a[2,0,0,5]
   >= 0
 d_f_Res_min_A_L-1[0]: dpk[0,6,0,0] - 0.0181818226654635 n_a[0,0,0,6] >= 0
 d_f_Res_min_A_L-1[1]: dpk[1,6,0,0] - 0.0909091146177958 n_a[1,0,0,6] >= 0
 d_f_Res_min_A_L-1[2]: dpk[2,6,0,0] - 0.0909091146177958 n_a[2,0,0,6] >= 0
 d_f_Res_max_A_L-1[0]: - dpk[0,7,0,0] + 0.0181818226654635 n_a[0,0,0,6]
   >= 0
 d_f_Res_max_A_L-1[1]: - dpk[1,7,0,0] + 0.0909091146177958 n_a[1,0,0,6]
   >= 0
 d_f_Res_max_A_L-1[2]: - dpk[2,7,0,0] + 0.0909091146177958 n_a[2,0,0,6]
   >= 0
 d_f_Res_min_A_L-1[0]: dpk[0,7,0,0] - 0.0181818226654635 n_a[0,0,0,7] >= 0
 d_f_Res_min_A_L-1[1]: dpk[1,7,0,0] - 0.0909091146177958 n_a[1,0,0,7] >= 0
 d_f_Res_min_A_L-1[2]: dpk[2,7,0,0] - 0.0909091146177958 n_a[2,0,0,7] >= 0
 d_f_Res_max_A_L-1[0]: - dpk[0,8,0,0] + 0.0181818226654635 n_a[0,0,0,7]
   >= 0
 d_f_Res_max_A_L-1[1]: - dpk[1,8,0,0] + 0.0909091146177958 n_a[1,0,0,7]
   >= 0
 d_f_Res_max_A_L-1[2]: - dpk[2,8,0,0] + 0.0909091146177958 n_a[2,0,0,7]
   >= 0
 d_f_Res_min_A_L-1[0]: dpk[0,8,0,0] - 0.0181818226654635 n_a[0,0,0,8] >= 0
 d_f_Res_min_A_L-1[1]: dpk[1,8,0,0] - 0.0909091146177958 n_a[1,0,0,8] >= 0
 d_f_Res_min_A_L-1[2]: dpk[2,8,0,0] - 0.0909091146177958 n_a[2,0,0,8] >= 0
 d_f_Res_max_A_L-1[0]: - dpk[0,9,0,0] + 0.0181818226654635 n_a[0,0,0,8]
   >= 0
 d_f_Res_max_A_L-1[1]: - dpk[1,9,0,0] + 0.0909091146177958 n_a[1,0,0,8]
   >= 0
 d_f_Res_max_A_L-1[2]: - dpk[2,9,0,0] + 0.0909091146177958 n_a[2,0,0,8]
   >= 0
 d_f_Res_min_A_L-1[0]: dpk[0,9,0,0] - 0.0181818226654635 n_a[0,0,0,9] >= 0
 d_f_Res_min_A_L-1[1]: dpk[1,9,0,0] - 0.0909091146177958 n_a[1,0,0,9] >= 0
 d_f_Res_min_A_L-1[2]: dpk[2,9,0,0] - 0.0909091146177958 n_a[2,0,0,9] >= 0
 d_f_Res_max_A_L[0]: - dpk[0,10,0,0] + 0.0181818226654635 n_a[0,0,0,9]
   >= 0
 d_f_Res_max_A_L[1]: - dpk[1,10,0,0] + 0.0909091146177958 n_a[1,0,0,9]
   >= 0
 d_f_Res_max_A_L[2]: - dpk[2,10,0,0] + 0.0909091146177958 n_a[2,0,0,9]
   >= 0
 d_f_Res_min_A_L[0]: dpk[0,10,0,0] >= 0
 d_f_Res_min_A_L[1]: dpk[1,10,0,0] >= 0
 d_f_Res_min_A_L[2]: dpk[2,10,0,0] >= 0
Bounds
 flujo[0,0,0] free
 flujo[1,0,0] free
 flujo[2,0,0] free
 f_ts[0,0,0] free
 f_ts[1,0,0] free
 f_ts[2,0,0] free
Binaries
 vg_inc[0] vg_inc[1] vg_inc[2] vg_inc[3] n_l[0,0,0] n_l[1,0,0] n_l[2,0,0]
 n_a[0,0,0,0] n_a[0,0,0,1] n_a[0,0,0,2] n_a[0,0,0,3] n_a[0,0,0,4]
 n_a[0,0,0,5] n_a[0,0,0,6] n_a[0,0,0,7] n_a[0,0,0,8] n_a[0,0,0,9]
 n_a[0,0,0,10] n_a[1,0,0,0] n_a[1,0,0,1] n_a[1,0,0,2] n_a[1,0,0,3]
 n_a[1,0,0,4] n_a[1,0,0,5] n_a[1,0,0,6] n_a[1,0,0,7] n_a[1,0,0,8]
 n_a[1,0,0,9] n_a[1,0,0,10] n_a[2,0,0,0] n_a[2,0,0,1] n_a[2,0,0,2]
 n_a[2,0,0,3] n_a[2,0,0,4] n_a[2,0,0,5] n_a[2,0,0,6] n_a[2,0,0,7]
 n_a[2,0,0,8] n_a[2,0,0,9] n_a[2,0,0,10] s_ts[0,0,0] s_ts[1,0,0]
 s_ts[2,0,0]
End
